Route #1: 2 34 48 40 7 37 12 27 44
Route #2: 15 8 17 42 21
Route #3: 1 32 28 29 19
Route #4: 14 41 45 39 35 10
Route #5: 22 38 46 23 13 3
Route #6: 5 31
Route #7: 6 30 11 16 24 43 36 20
Route #8: 25 4 18 26 47 49 33 9
Cost 1333